4 
5  11 33 49 
6  09 21 34 49 
7  04 22 37 52 
8  07 22 37 52 
9  07 22 37 52 
10  07 22 37 52 
11  07 22 37 52 
12  07 22 37 52 
13  07 22 37 52 
14  07 22 37 52 
15  07 22 37 52 
16  07 22 37 52 
17  07 22 37 52 
18  07 22 37 53 
19  09 24 39 54 
20  09 24 39 54 
21  09 24 39 54 
22  08 23 38 53 
23  08 
0 
